(set-info :smt-lib-version 2.6)
(set-logic QF_NIA)
(set-info :source |AProve team, see http://aprove.informatik.rwth-aachen.de/, submitted for SMT-COMP 2014|)
(set-info :category "industrial")
(set-info :status sat)
(declare-fun b__49 () Int)
(declare-fun a__7 () Int)
(declare-fun a__21 () Int)
(declare-fun a__30 () Int)
(declare-fun a__41 () Int)
(declare-fun a__11 () Int)
(declare-fun a__15 () Int)
(declare-fun a__23 () Int)
(declare-fun a__26 () Int)
(declare-fun a__32 () Int)
(declare-fun a__36 () Int)
(declare-fun a__4 () Int)
(declare-fun a__45 () Int)
(declare-fun a__43 () Int)
(declare-fun b__50 () Int)
(declare-fun b__51 () Int)
(declare-fun a__2 () Int)
(declare-fun b__52 () Int)
(declare-fun b__53 () Int)
(declare-fun b__54 () Int)
(declare-fun b__55 () Int)
(declare-fun a__9 () Int)
(declare-fun a__5 () Int)
(declare-fun a__12 () Int)
(declare-fun a__17 () Int)
(declare-fun a__24 () Int)
(declare-fun a__28 () Int)
(declare-fun a__33 () Int)
(declare-fun a__37 () Int)
(declare-fun a__34 () Int)
(declare-fun a__39 () Int)
(declare-fun a__8 () Int)
(declare-fun a__3 () Int)
(declare-fun a__46 () Int)
(declare-fun a__47 () Int)
(declare-fun a__18 () Int)
(declare-fun a__19 () Int)
(declare-fun a__10 () Int)
(declare-fun a__13 () Int)
(declare-fun a__14 () Int)
(declare-fun a__16 () Int)
(declare-fun a__20 () Int)
(declare-fun a__22 () Int)
(declare-fun a__25 () Int)
(declare-fun a__27 () Int)
(declare-fun a__29 () Int)
(declare-fun a__31 () Int)
(declare-fun a__35 () Int)
(declare-fun a__38 () Int)
(declare-fun a__40 () Int)
(declare-fun a__42 () Int)
(declare-fun a__44 () Int)
(declare-fun a__48 () Int)
(declare-fun a__1 () Int)
(declare-fun a__6 () Int)
(assert (and (>= (+ 1 (* (- 0 1) b__49)) 0) (= (+ (* b__49 a__7 a__21) (* (- 0 1) (* a__7 a__21))) 0) (= (+ (* b__49 a__7 a__30) (* (- 0 1) (* a__7 a__30))) 0) (= (+ (* b__49 a__7 a__41) (* (- 0 1) (* a__7 a__41))) 0) (= (+ (* b__49 a__7 a__11) (* (- 0 1) (* a__7 a__11))) 0) (= (+ (* b__49 a__7 a__15) (* (- 0 1) (* a__7 a__15))) 0) (= (+ (* b__49 a__7 a__23) (* (- 0 1) (* a__7 a__23))) 0) (= (+ (* b__49 a__7 a__26) (* (- 0 1) (* a__7 a__26))) 0) (= (+ (* b__49 a__7 a__32) (* (- 0 1) (* a__7 a__32))) 0) (= (+ (* b__49 a__7 a__36) (* (- 0 1) (* a__7 a__36))) 0) (= (+ (* b__49 a__7 a__4) (* (- 0 1) (* a__7 a__4))) 0) (= (+ (* b__49 a__7 a__45) (* (- 0 1) (* a__7 a__45))) 0) (= (+ (* b__49 a__7 a__43) (* (- 0 1) (* a__7 a__43))) 0) (>= (+ 1 (* (- 0 1) b__50)) 0) (= (+ (* b__50 a__7) (* (- 0 1) a__7)) 0) (>= (+ 1 (* (- 0 1) b__51)) 0) (= (+ (* b__51 a__7) (* (- 0 1) a__7)) 0) (= (+ (* b__51 a__2 a__15) (* (- 0 1) (* a__2 a__15))) 0) (>= (+ 1 (* (- 0 1) b__52)) 0) (= (+ (* b__52 a__7) (* (- 0 1) a__7)) 0) (= (+ (* b__52 a__2) (* (- 0 1) a__2)) 0) (>= (+ 1 (* (- 0 1) b__53)) 0) (= (+ (* b__53 a__7) (* (- 0 1) a__7)) 0) (= (+ (* b__53 a__2 a__21) (* (- 0 1) (* a__2 a__21))) 0) (= (+ (* b__53 a__2 a__41) (* (- 0 1) (* a__2 a__41))) 0) (= (+ (* b__53 a__2 a__26) (* (- 0 1) (* a__2 a__26))) 0) (= (+ (* b__53 a__2 a__32) (* (- 0 1) (* a__2 a__32))) 0) (>= (+ 1 (* (- 0 1) b__54)) 0) (= (+ (* b__54 a__7) (* (- 0 1) a__7)) 0) (= (+ (* b__54 a__2 a__30) (* (- 0 1) (* a__2 a__30))) 0) (= (+ (* b__54 a__2 a__11) (* (- 0 1) (* a__2 a__11))) 0) (= (+ (* b__54 a__2 a__23) (* (- 0 1) (* a__2 a__23))) 0) (= (+ (* b__54 a__2 a__36) (* (- 0 1) (* a__2 a__36))) 0) (>= (+ 1 (* (- 0 1) b__55)) 0) (= (+ (* b__55 a__7) (* (- 0 1) a__7)) 0) (= (+ (* b__55 a__2 a__43) (* (- 0 1) (* a__2 a__43))) 0) (>= (+ (* a__4 a__2) (* (- 0 1) (* a__9 a__4 a__7))) 0) (>= (+ (* a__5 a__2) (* (- 0 1) (* a__5 a__7))) 0) (>= (+ (* a__12 a__7) (* (- 0 1) (* a__17 a__15 a__2))) 0) (>= (+ (* a__4 a__2) (* (- 0 1) a__2)) 0) (>= (+ (* a__21 a__2) (* (- 0 1) (* a__9 a__21 a__7))) 0) (>= (+ (* a__24 a__7) (* (- 0 1) (* a__28 a__26 a__2))) 0) (>= (+ (* a__21 a__2) (* (- 0 1) a__2)) 0) (>= (+ (* a__30 a__2) (* (- 0 1) (* a__9 a__30 a__7))) 0) (>= (+ (* a__33 a__7) (* (- 0 1) (* a__37 a__2))) 0) (>= (+ (* a__34 a__7) (* (- 0 1) (* a__39 a__36 a__2))) 0) (>= (+ (* a__30 a__2) (* (- 0 1) a__2)) 0) (>= (+ (* a__41 a__2) (* (- 0 1) (* a__9 a__41 a__7))) 0) (>= (+ (* a__37 a__7) (* (- 0 1) (* a__45 a__43 a__2))) 0) (>= (+ (* a__41 a__2) (* (- 0 1) a__2)) 0) (>= (+ (* a__11 a__2) (* (- 0 1) (* a__9 a__11 a__7))) 0) (>= (+ (* a__12 a__2) (* (- 0 1) (* a__12 a__7))) 0) (>= (+ (* a__45 a__39 a__7) (* (- 0 1) (* a__28 a__21 a__2))) 0) (>= (+ (* a__11 a__2) (* (- 0 1) a__2)) 0) (>= (+ (* a__15 a__2) (* (- 0 1) (* a__9 a__15 a__7))) 0) (>= (+ (* a__43 a__39 a__7) (* (- 0 1) (* a__39 a__30 a__2))) 0) (>= (+ (* a__15 a__2) (* (- 0 1) a__2)) 0) (>= (+ (* a__17 a__2) (* (- 0 1) (* a__17 a__7))) 0) (>= (+ (* a__17 a__7) (* (- 0 1) (* a__28 a__41 a__2))) 0) (>= (+ (* a__23 a__2) (* (- 0 1) (* a__9 a__23 a__7))) 0) (>= (+ (* a__24 a__2) (* (- 0 1) (* a__24 a__7))) 0) (>= (+ (* a__4 a__17 a__7) (* (- 0 1) (* a__39 a__11 a__2))) 0) (>= (+ (* a__5 a__17 a__7) (* (- 0 1) (* a__12 a__2))) 0) (>= (+ (* a__23 a__2) (* (- 0 1) a__2)) 0) (>= (+ (* a__26 a__2) (* (- 0 1) (* a__9 a__26 a__7))) 0) (>= (+ (* a__4 a__28 a__7) (* (- 0 1) (* a__39 a__23 a__2))) 0) (>= (+ (* a__5 a__28 a__7) (* (- 0 1) (* a__24 a__2))) 0) (>= (+ (* a__26 a__2) (* (- 0 1) a__2)) 0) (>= (+ (* a__28 a__2) (* (- 0 1) (* a__28 a__7))) 0) (>= (+ (* a__4 a__45 a__7) (* (- 0 1) (* a__34 a__2))) 0) (>= (+ (* a__5 a__45 a__7) (* (- 0 1) (* a__28 a__32 a__2)) (* (- 0 1) (* a__33 a__2))) 0) (>= (+ (* a__32 a__2) (* (- 0 1) (* a__9 a__32 a__7))) 0) (>= (+ (* a__33 a__2) (* (- 0 1) (* a__33 a__7))) 0) (>= (+ (* a__34 a__2) (* (- 0 1) (* a__34 a__7))) 0) (>= (+ (* a__32 a__2) (* (- 0 1) a__2)) 0) (>= (+ (* a__36 a__2) (* (- 0 1) (* a__9 a__36 a__7))) 0) (>= (+ (* a__37 a__2) (* (- 0 1) (* a__37 a__7))) 0) (>= (+ (* a__36 a__2) (* (- 0 1) a__2)) 0) (>= (+ (* a__39 a__2) (* (- 0 1) (* a__39 a__7))) 0) (>= (+ (* a__43 a__2) (* (- 0 1) (* a__9 a__43 a__7))) 0) (>= (+ (* a__43 a__2) (* (- 0 1) a__2)) 0) (>= (+ (* a__45 a__2) (* (- 0 1) (* a__9 a__45 a__7))) 0) (>= (+ (* a__45 a__2) (* (- 0 1) a__2)) 0) (>= (+ (* b__49 a__8) (* b__49 a__3 a__9) (* (- 0 1) (* b__49 a__46)) (* (- 0 1) (* b__49 a__3 a__47)) (* (- 0 1) (* b__49 a__8 a__4 a__47))) 0) (>= (+ (* b__49 a__4 a__9) (* (- 0 1) (* b__49 a__9 a__4 a__47))) 0) (>= (+ (* b__49 a__5 a__9) (* (- 0 1) (* b__49 a__5 a__47))) 0) (>= (+ (* b__49 a__46) (* b__49 a__18 a__47) (* (- 0 1) (* b__49 a__8)) (* (- 0 1) (* b__49 a__3 a__9)) (* (- 0 1) (* b__49 a__19 a__4 a__9)) (* (- 0 1) (* b__49 a__18 a__5 a__9))) 0) (>= (+ (* b__49 a__46) (* b__49 a__10 a__47) (* b__49 a__13 a__11 a__47) (* (- 0 1) (* b__49 a__8)) (* (- 0 1) (* b__49 a__14 a__9)) (* (- 0 1) (* b__49 a__16 a__15 a__9))) 0) (>= (+ (* b__49 a__12 a__47) (* (- 0 1) (* b__49 a__17 a__15 a__9))) 0) (>= (+ (* b__49 a__8) (* b__49 a__18 a__9) (* (- 0 1) (* b__49 a__46)) (* (- 0 1) (* b__49 a__18 a__47))) 0) (>= (+ (* b__49 a__8) (* b__49 a__20 a__9) (* (- 0 1) (* b__49 a__46)) (* (- 0 1) (* b__49 a__20 a__47)) (* (- 0 1) (* b__49 a__8 a__21 a__47))) 0) (>= (+ (* b__49 a__21 a__9) (* (- 0 1) (* b__49 a__9 a__21 a__47))) 0) (>= (+ (* b__49 a__46) (* b__49 a__22 a__47) (* b__49 a__13 a__23 a__47) (* (- 0 1) (* b__49 a__8)) (* (- 0 1) (* b__49 a__25 a__9)) (* (- 0 1) (* b__49 a__27 a__26 a__9))) 0) (>= (+ (* b__49 a__24 a__47) (* (- 0 1) (* b__49 a__28 a__26 a__9))) 0) (>= (+ (* b__49 a__8) (* b__49 a__29 a__9) (* (- 0 1) (* b__49 a__46)) (* (- 0 1) (* b__49 a__29 a__47)) (* (- 0 1) (* b__49 a__8 a__30 a__47))) 0) (>= (+ (* b__49 a__30 a__9) (* (- 0 1) (* b__49 a__9 a__30 a__47))) 0) (>= (+ (* b__49 a__46) (* b__49 a__31 a__47) (* b__49 a__13 a__32 a__47) (* (- 0 1) (* b__49 a__8)) (* (- 0 1) (* b__49 a__35 a__9)) (* (- 0 1) (* b__49 a__38 a__36 a__9))) 0) (>= (+ (* b__49 a__33 a__47) (* (- 0 1) (* b__49 a__37 a__9))) 0) (>= (+ (* b__49 a__34 a__47) (* (- 0 1) (* b__49 a__39 a__36 a__9))) 0) (>= (+ (* b__49 a__8) (* b__49 a__40 a__9) (* (- 0 1) (* b__49 a__46)) (* (- 0 1) (* b__49 a__40 a__47)) (* (- 0 1) (* b__49 a__8 a__41 a__47))) 0) (>= (+ (* b__49 a__41 a__9) (* (- 0 1) (* b__49 a__9 a__41 a__47))) 0) (>= (+ (* b__49 a__46) (* b__49 a__35 a__47) (* b__49 a__13 a__36 a__47) (* (- 0 1) (* b__49 a__8)) (* (- 0 1) (* b__49 a__42 a__9)) (* (- 0 1) (* b__49 a__44 a__43 a__9))) 0) (>= (+ (* b__49 a__37 a__47) (* (- 0 1) (* b__49 a__45 a__43 a__9))) 0) (>= (+ (* b__49 a__8) (* b__49 a__10 a__9) (* (- 0 1) (* b__49 a__46)) (* (- 0 1) (* b__49 a__10 a__47)) (* (- 0 1) (* b__49 a__8 a__11 a__47))) 0) (>= (+ (* b__49 a__11 a__9) (* (- 0 1) (* b__49 a__9 a__11 a__47))) 0) (>= (+ (* b__49 a__12 a__9) (* (- 0 1) (* b__49 a__12 a__47))) 0) (>= (+ (* b__49 a__46) (* b__49 a__38 a__47) (* b__49 a__44 a__39 a__47) (* (- 0 1) (* b__49 a__8)) (* (- 0 1) (* b__49 a__20 a__9)) (* (- 0 1) (* b__49 a__27 a__21 a__9))) 0) (>= (+ (* b__49 a__45 a__39 a__47) (* (- 0 1) (* b__49 a__28 a__21 a__9))) 0) (>= (+ (* b__49 a__8) (* b__49 a__14 a__9) (* (- 0 1) (* b__49 a__46)) (* (- 0 1) (* b__49 a__14 a__47)) (* (- 0 1) (* b__49 a__8 a__15 a__47))) 0) (>= (+ (* b__49 a__15 a__9) (* (- 0 1) (* b__49 a__9 a__15 a__47))) 0) (>= (+ (* b__49 a__46) (* b__49 a__38 a__47) (* b__49 a__42 a__39 a__47) (* (- 0 1) (* b__49 a__8)) (* (- 0 1) (* b__49 a__29 a__9)) (* (- 0 1) (* b__49 a__38 a__30 a__9))) 0) (>= (+ (* b__49 a__43 a__39 a__47) (* (- 0 1) (* b__49 a__39 a__30 a__9))) 0) (>= (+ (* b__49 a__8) (* b__49 a__16 a__9) (* (- 0 1) (* b__49 a__46)) (* (- 0 1) (* b__49 a__16 a__47))) 0) (>= (+ (* b__49 a__17 a__9) (* (- 0 1) (* b__49 a__17 a__47))) 0) (>= (+ (* b__49 a__46) (* b__49 a__16 a__47) (* (- 0 1) (* b__49 a__8)) (* (- 0 1) (* b__49 a__40 a__9)) (* (- 0 1) (* b__49 a__27 a__41 a__9))) 0) (>= (+ (* b__49 a__17 a__47) (* (- 0 1) (* b__49 a__28 a__41 a__9))) 0) (>= (+ (* b__49 a__8) (* b__49 a__22 a__9) (* (- 0 1) (* b__49 a__46)) (* (- 0 1) (* b__49 a__22 a__47)) (* (- 0 1) (* b__49 a__8 a__23 a__47))) 0) (>= (+ (* b__49 a__23 a__9) (* (- 0 1) (* b__49 a__9 a__23 a__47))) 0) (>= (+ (* b__49 a__24 a__9) (* (- 0 1) (* b__49 a__24 a__47))) 0) (>= (+ (* b__49 a__46) (* b__49 a__16 a__47) (* b__49 a__3 a__17 a__47) (* (- 0 1) (* b__49 a__8)) (* (- 0 1) (* b__49 a__10 a__9)) (* (- 0 1) (* b__49 a__38 a__11 a__9))) 0) (>= (+ (* b__49 a__4 a__17 a__47) (* (- 0 1) (* b__49 a__39 a__11 a__9))) 0) (>= (+ (* b__49 a__5 a__17 a__47) (* (- 0 1) (* b__49 a__12 a__9))) 0) (>= (+ (* b__49 a__8) (* b__49 a__25 a__9) (* (- 0 1) (* b__49 a__46)) (* (- 0 1) (* b__49 a__25 a__47)) (* (- 0 1) (* b__49 a__8 a__26 a__47))) 0) (>= (+ (* b__49 a__26 a__9) (* (- 0 1) (* b__49 a__9 a__26 a__47))) 0) (>= (+ (* b__49 a__46) (* b__49 a__27 a__47) (* b__49 a__3 a__28 a__47) (* (- 0 1) (* b__49 a__8)) (* (- 0 1) (* b__49 a__22 a__9)) (* (- 0 1) (* b__49 a__38 a__23 a__9))) 0) (>= (+ (* b__49 a__4 a__28 a__47) (* (- 0 1) (* b__49 a__39 a__23 a__9))) 0) (>= (+ (* b__49 a__5 a__28 a__47) (* (- 0 1) (* b__49 a__24 a__9))) 0) (>= (+ (* b__49 a__8) (* b__49 a__27 a__9) (* (- 0 1) (* b__49 a__46)) (* (- 0 1) (* b__49 a__27 a__47))) 0) (>= (+ (* b__49 a__28 a__9) (* (- 0 1) (* b__49 a__28 a__47))) 0) (>= (+ (* b__49 a__46) (* b__49 a__44 a__47) (* b__49 a__3 a__45 a__47) (* (- 0 1) (* b__49 a__8)) (* (- 0 1) (* b__49 a__31 a__9)) (* (- 0 1) (* b__49 a__27 a__32 a__9))) 0) (>= (+ (* b__49 a__4 a__45 a__47) (* (- 0 1) (* b__49 a__34 a__9))) 0) (>= (+ (* b__49 a__5 a__45 a__47) (* (- 0 1) (* b__49 a__28 a__32 a__9)) (* (- 0 1) (* b__49 a__33 a__9))) 0) (>= (+ (* b__49 a__8) (* b__49 a__31 a__9) (* (- 0 1) (* b__49 a__46)) (* (- 0 1) (* b__49 a__31 a__47)) (* (- 0 1) (* b__49 a__8 a__32 a__47))) 0) (>= (+ (* b__49 a__32 a__9) (* (- 0 1) (* b__49 a__9 a__32 a__47))) 0) (>= (+ (* b__49 a__33 a__9) (* (- 0 1) (* b__49 a__33 a__47))) 0) (>= (+ (* b__49 a__34 a__9) (* (- 0 1) (* b__49 a__34 a__47))) 0) (>= (+ (* b__49 a__8) (* b__49 a__35 a__9) (* (- 0 1) (* b__49 a__46)) (* (- 0 1) (* b__49 a__35 a__47)) (* (- 0 1) (* b__49 a__8 a__36 a__47))) 0) (>= (+ (* b__49 a__36 a__9) (* (- 0 1) (* b__49 a__9 a__36 a__47))) 0) (>= (+ (* b__49 a__37 a__9) (* (- 0 1) (* b__49 a__37 a__47))) 0) (>= (+ (* b__49 a__8) (* b__49 a__38 a__9) (* (- 0 1) (* b__49 a__46)) (* (- 0 1) (* b__49 a__38 a__47))) 0) (>= (+ (* b__49 a__39 a__9) (* (- 0 1) (* b__49 a__39 a__47))) 0) (>= (+ (* b__49 a__8) (* b__49 a__42 a__9) (* (- 0 1) (* b__49 a__46)) (* (- 0 1) (* b__49 a__42 a__47)) (* (- 0 1) (* b__49 a__8 a__43 a__47))) 0) (>= (+ (* b__49 a__43 a__9) (* (- 0 1) (* b__49 a__9 a__43 a__47))) 0) (>= (+ (* b__49 a__8) (* b__49 a__44 a__9) (* (- 0 1) (* b__49 a__46)) (* (- 0 1) (* b__49 a__44 a__47)) (* (- 0 1) (* b__49 a__8 a__45 a__47))) 0) (>= (+ (* b__49 a__45 a__9) (* (- 0 1) (* b__49 a__9 a__45 a__47))) 0) (>= (+ (* b__49 a__8) (* b__49 a__19 a__9) (* (- 0 1) (* b__49 a__46)) (* (- 0 1) (* b__49 a__19 a__47))) 0) (>= (+ (* b__49 a__8) (* b__49 a__13 a__9) (* (- 0 1) (* b__49 a__46)) (* (- 0 1) (* b__49 a__13 a__47))) 0) (>= (+ (* b__49 a__8) (* b__49 a__48 a__9) (* (- 0 1) (* b__49 a__46)) (* (- 0 1) (* b__49 a__48 a__47))) 0) (>= (+ (* b__50 a__9 a__5) (* (- 0 1) (* b__50 a__5))) 0) (>= (+ (* b__50 a__9 a__4) (* (- 0 1) (* b__50 a__4))) 0) (>= (+ (* b__50 a__47 a__4) (* (- 0 1) (* b__50 a__4))) 0) (>= (+ (* b__50 a__47 a__5) (* (- 0 1) (* b__50 a__5))) 0) (>= (+ (* b__51 a__47 a__17) (* (- 0 1) (* b__51 a__17))) 0) (>= (+ (* b__51 a__9 a__17) (* (- 0 1) (* b__51 a__17))) 0) (>= (+ (* b__52 a__47 a__15) (* (- 0 1) (* b__52 a__15))) 0) (>= (+ (* b__52 a__9 a__15) (* (- 0 1) (* b__52 a__15))) 0) (>= (+ (* b__52 a__47 a__21) (* (- 0 1) (* b__52 a__21))) 0) (>= (+ (* b__52 a__9 a__21) (* (- 0 1) (* b__52 a__21))) 0) (>= (+ (* b__53 a__47 a__28) (* (- 0 1) (* b__53 a__28))) 0) (>= (+ (* b__53 a__9 a__28) (* (- 0 1) (* b__53 a__28))) 0) (>= (+ (* b__52 a__47 a__26) (* (- 0 1) (* b__52 a__26))) 0) (>= (+ (* b__52 a__9 a__26) (* (- 0 1) (* b__52 a__26))) 0) (>= (+ (* b__52 a__47 a__30) (* (- 0 1) (* b__52 a__30))) 0) (>= (+ (* b__52 a__9 a__30) (* (- 0 1) (* b__52 a__30))) 0) (>= (+ (* b__54 a__47 a__39) (* (- 0 1) (* b__54 a__39))) 0) (>= (+ (* b__54 a__9 a__39) (* (- 0 1) (* b__54 a__39))) 0) (>= (+ (* b__52 a__9 a__37) (* (- 0 1) (* b__52 a__37))) 0) (>= (+ (* b__52 a__9 a__36) (* (- 0 1) (* b__52 a__36))) 0) (>= (+ (* b__52 a__47 a__36) (* (- 0 1) (* b__52 a__36))) 0) (>= (+ (* b__52 a__47 a__37) (* (- 0 1) (* b__52 a__37))) 0) (>= (+ (* b__52 a__47 a__41) (* (- 0 1) (* b__52 a__41))) 0) (>= (+ (* b__52 a__9 a__41) (* (- 0 1) (* b__52 a__41))) 0) (>= (+ (* b__55 a__47 a__45) (* (- 0 1) (* b__55 a__45))) 0) (>= (+ (* b__55 a__9 a__45) (* (- 0 1) (* b__55 a__45))) 0) (>= (+ (* b__52 a__47 a__43) (* (- 0 1) (* b__52 a__43))) 0) (>= (+ (* b__52 a__9 a__43) (* (- 0 1) (* b__52 a__43))) 0) (>= (+ (* b__52 a__9 a__12) (* (- 0 1) (* b__52 a__12))) 0) (>= (+ (* b__52 a__9 a__11) (* (- 0 1) (* b__52 a__11))) 0) (>= (+ (* b__52 a__47 a__11) (* (- 0 1) (* b__52 a__11))) 0) (>= (+ (* b__52 a__47 a__12) (* (- 0 1) (* b__52 a__12))) 0) (>= (+ (* b__52 a__9 a__24) (* (- 0 1) (* b__52 a__24))) 0) (>= (+ (* b__52 a__9 a__23) (* (- 0 1) (* b__52 a__23))) 0) (>= (+ (* b__52 a__47 a__23) (* (- 0 1) (* b__52 a__23))) 0) (>= (+ (* b__52 a__47 a__24) (* (- 0 1) (* b__52 a__24))) 0) (>= (+ (* b__52 a__9 a__33) (* (- 0 1) (* b__52 a__33))) 0) (>= (+ (* b__52 a__9 a__32) (* (- 0 1) (* b__52 a__32))) 0) (>= (+ (* b__52 a__9 a__34) (* (- 0 1) (* b__52 a__34))) 0) (>= (+ (* b__52 a__47 a__32) (* (- 0 1) (* b__52 a__32))) 0) (>= (+ (* b__52 a__47 a__33) (* (- 0 1) (* b__52 a__33))) 0) (>= (+ (* b__52 a__47 a__34) (* (- 0 1) (* b__52 a__34))) 0) (>= (+ (* b__49 a__46) (* b__49 a__20 a__47) (* b__49 a__13 a__21 a__47) (* (- 0 1) (* b__49 a__8)) (* (- 0 1) (* b__49 a__13 a__9))) 0) (>= (+ (* b__49 a__46) (* b__49 a__29 a__47) (* b__49 a__13 a__30 a__47) (* (- 0 1) (* b__49 a__8)) (* (- 0 1) (* b__49 a__13 a__9))) 0) (>= (+ (* b__49 a__46) (* b__49 a__40 a__47) (* b__49 a__13 a__41 a__47) (* (- 0 1) (* b__49 a__8)) (* (- 0 1) (* b__49 a__13 a__9))) 0) (>= (+ (* b__49 a__46) (* b__49 a__14 a__47) (* b__49 a__13 a__15 a__47) (* (- 0 1) (* b__49 a__8)) (* (- 0 1) (* b__49 a__13 a__9))) 0) (>= (+ (* b__49 a__46) (* b__49 a__25 a__47) (* b__49 a__13 a__26 a__47) (* (- 0 1) (* b__49 a__8)) (* (- 0 1) (* b__49 a__13 a__9))) 0) (>= (+ (* b__49 a__46) (* b__49 a__38 a__47) (* b__49 a__19 a__39 a__47) (* (- 0 1) (* b__49 a__8)) (* (- 0 1) (* b__49 a__13 a__9))) 0) (>= (+ (* b__49 a__46) (* b__49 a__16 a__47) (* b__49 a__18 a__17 a__47) (* (- 0 1) (* b__49 a__8)) (* (- 0 1) (* b__49 a__13 a__9))) 0) (>= (+ (* b__49 a__46) (* b__49 a__27 a__47) (* b__49 a__48 a__28 a__47) (* (- 0 1) (* b__49 a__8)) (* (- 0 1) (* b__49 a__13 a__9))) 0) (>= (+ (* b__49 a__46) (* b__49 a__44 a__47) (* b__49 a__48 a__45 a__47) (* (- 0 1) (* b__49 a__8)) (* (- 0 1) (* b__49 a__19 a__9))) 0) (>= (+ a__1 (* a__3 a__2) (* (- 0 1) a__6) (* (- 0 1) (* a__3 a__7)) (* (- 0 1) (* a__8 a__4 a__7))) 0) (>= (+ a__6 (* a__10 a__7) (* a__13 a__11 a__7) (* (- 0 1) a__1) (* (- 0 1) (* a__14 a__2)) (* (- 0 1) (* a__16 a__15 a__2))) 0) (>= (* a__3 a__2) 0) (>= (+ a__1 (* a__18 a__2) (* (- 0 1) a__6) (* (- 0 1) (* a__18 a__7))) 0) (>= (+ a__6 (* a__18 a__7) (* (- 0 1) a__1) (* (- 0 1) (* a__3 a__2)) (* (- 0 1) (* a__19 a__4 a__2)) (* (- 0 1) (* a__18 a__5 a__2))) 0) (>= (+ a__1 (* a__20 a__2) (* (- 0 1) a__6) (* (- 0 1) (* a__20 a__7)) (* (- 0 1) (* a__8 a__21 a__7))) 0) (>= (+ a__6 (* a__22 a__7) (* a__13 a__23 a__7) (* (- 0 1) a__1) (* (- 0 1) (* a__25 a__2)) (* (- 0 1) (* a__27 a__26 a__2))) 0) (>= (* a__20 a__2) 0) (>= (+ a__1 (* a__29 a__2) (* (- 0 1) a__6) (* (- 0 1) (* a__29 a__7)) (* (- 0 1) (* a__8 a__30 a__7))) 0) (>= (+ a__6 (* a__31 a__7) (* a__13 a__32 a__7) (* (- 0 1) a__1) (* (- 0 1) (* a__35 a__2)) (* (- 0 1) (* a__38 a__36 a__2))) 0) (>= (* a__29 a__2) 0) (>= (+ a__1 (* a__40 a__2) (* (- 0 1) a__6) (* (- 0 1) (* a__40 a__7)) (* (- 0 1) (* a__8 a__41 a__7))) 0) (>= (+ a__6 (* a__35 a__7) (* a__13 a__36 a__7) (* (- 0 1) a__1) (* (- 0 1) (* a__42 a__2)) (* (- 0 1) (* a__44 a__43 a__2))) 0) (>= (* a__40 a__2) 0) (>= (+ a__1 (* a__10 a__2) (* (- 0 1) a__6) (* (- 0 1) (* a__10 a__7)) (* (- 0 1) (* a__8 a__11 a__7))) 0) (>= (+ a__6 (* a__38 a__7) (* a__44 a__39 a__7) (* (- 0 1) a__1) (* (- 0 1) (* a__20 a__2)) (* (- 0 1) (* a__27 a__21 a__2))) 0) (>= (* a__10 a__2) 0) (>= (+ a__1 (* a__14 a__2) (* (- 0 1) a__6) (* (- 0 1) (* a__14 a__7)) (* (- 0 1) (* a__8 a__15 a__7))) 0) (>= (+ a__6 (* a__38 a__7) (* a__42 a__39 a__7) (* (- 0 1) a__1) (* (- 0 1) (* a__29 a__2)) (* (- 0 1) (* a__38 a__30 a__2))) 0) (>= (* a__14 a__2) 0) (>= (+ a__1 (* a__16 a__2) (* (- 0 1) a__6) (* (- 0 1) (* a__16 a__7))) 0) (>= (+ a__6 (* a__16 a__7) (* (- 0 1) a__1) (* (- 0 1) (* a__40 a__2)) (* (- 0 1) (* a__27 a__41 a__2))) 0) (>= (+ a__1 (* a__22 a__2) (* (- 0 1) a__6) (* (- 0 1) (* a__22 a__7)) (* (- 0 1) (* a__8 a__23 a__7))) 0) (>= (+ a__6 (* a__16 a__7) (* a__3 a__17 a__7) (* (- 0 1) a__1) (* (- 0 1) (* a__10 a__2)) (* (- 0 1) (* a__38 a__11 a__2))) 0) (>= (* a__22 a__2) 0) (>= (+ a__1 (* a__25 a__2) (* (- 0 1) a__6) (* (- 0 1) (* a__25 a__7)) (* (- 0 1) (* a__8 a__26 a__7))) 0) (>= (+ a__6 (* a__27 a__7) (* a__3 a__28 a__7) (* (- 0 1) a__1) (* (- 0 1) (* a__22 a__2)) (* (- 0 1) (* a__38 a__23 a__2))) 0) (>= (* a__25 a__2) 0) (>= (+ a__1 (* a__27 a__2) (* (- 0 1) a__6) (* (- 0 1) (* a__27 a__7))) 0) (>= (+ a__6 (* a__44 a__7) (* a__3 a__45 a__7) (* (- 0 1) a__1) (* (- 0 1) (* a__31 a__2)) (* (- 0 1) (* a__27 a__32 a__2))) 0) (>= (+ a__1 (* a__31 a__2) (* (- 0 1) a__6) (* (- 0 1) (* a__31 a__7)) (* (- 0 1) (* a__8 a__32 a__7))) 0) (>= (* a__31 a__2) 0) (>= (+ a__1 (* a__35 a__2) (* (- 0 1) a__6) (* (- 0 1) (* a__35 a__7)) (* (- 0 1) (* a__8 a__36 a__7))) 0) (>= (* a__35 a__2) 0) (>= (+ a__1 (* a__38 a__2) (* (- 0 1) a__6) (* (- 0 1) (* a__38 a__7))) 0) (>= (+ a__1 (* a__42 a__2) (* (- 0 1) a__6) (* (- 0 1) (* a__42 a__7)) (* (- 0 1) (* a__8 a__43 a__7))) 0) (>= (* a__42 a__2) 0) (>= (+ a__1 (* a__44 a__2) (* (- 0 1) a__6) (* (- 0 1) (* a__44 a__7)) (* (- 0 1) (* a__8 a__45 a__7))) 0) (>= (* a__44 a__2) 0) (not (and (= (+ a__1 (* a__3 a__2) (* (- 0 1) a__6) (* (- 0 1) (* a__3 a__7)) (* (- 0 1) (* a__8 a__4 a__7))) 0) (= (+ a__6 (* a__10 a__7) (* a__13 a__11 a__7) (* (- 0 1) a__1) (* (- 0 1) (* a__14 a__2)) (* (- 0 1) (* a__16 a__15 a__2))) 0) (= (* a__3 a__2) 0) (= (+ a__1 (* a__18 a__2) (* (- 0 1) a__6) (* (- 0 1) (* a__18 a__7))) 0) (= (+ a__6 (* a__18 a__7) (* (- 0 1) a__1) (* (- 0 1) (* a__3 a__2)) (* (- 0 1) (* a__19 a__4 a__2)) (* (- 0 1) (* a__18 a__5 a__2))) 0) (= (+ a__1 (* a__20 a__2) (* (- 0 1) a__6) (* (- 0 1) (* a__20 a__7)) (* (- 0 1) (* a__8 a__21 a__7))) 0) (= (+ a__6 (* a__22 a__7) (* a__13 a__23 a__7) (* (- 0 1) a__1) (* (- 0 1) (* a__25 a__2)) (* (- 0 1) (* a__27 a__26 a__2))) 0) (= (* a__20 a__2) 0) (= (+ a__1 (* a__29 a__2) (* (- 0 1) a__6) (* (- 0 1) (* a__29 a__7)) (* (- 0 1) (* a__8 a__30 a__7))) 0) (= (+ a__6 (* a__31 a__7) (* a__13 a__32 a__7) (* (- 0 1) a__1) (* (- 0 1) (* a__35 a__2)) (* (- 0 1) (* a__38 a__36 a__2))) 0) (= (* a__29 a__2) 0) (= (+ a__1 (* a__40 a__2) (* (- 0 1) a__6) (* (- 0 1) (* a__40 a__7)) (* (- 0 1) (* a__8 a__41 a__7))) 0) (= (+ a__6 (* a__35 a__7) (* a__13 a__36 a__7) (* (- 0 1) a__1) (* (- 0 1) (* a__42 a__2)) (* (- 0 1) (* a__44 a__43 a__2))) 0) (= (* a__40 a__2) 0) (= (+ a__1 (* a__10 a__2) (* (- 0 1) a__6) (* (- 0 1) (* a__10 a__7)) (* (- 0 1) (* a__8 a__11 a__7))) 0) (= (+ a__6 (* a__38 a__7) (* a__44 a__39 a__7) (* (- 0 1) a__1) (* (- 0 1) (* a__20 a__2)) (* (- 0 1) (* a__27 a__21 a__2))) 0) (= (* a__10 a__2) 0) (= (+ a__1 (* a__14 a__2) (* (- 0 1) a__6) (* (- 0 1) (* a__14 a__7)) (* (- 0 1) (* a__8 a__15 a__7))) 0) (= (+ a__6 (* a__38 a__7) (* a__42 a__39 a__7) (* (- 0 1) a__1) (* (- 0 1) (* a__29 a__2)) (* (- 0 1) (* a__38 a__30 a__2))) 0) (= (* a__14 a__2) 0) (= (+ a__1 (* a__16 a__2) (* (- 0 1) a__6) (* (- 0 1) (* a__16 a__7))) 0) (= (+ a__6 (* a__16 a__7) (* (- 0 1) a__1) (* (- 0 1) (* a__40 a__2)) (* (- 0 1) (* a__27 a__41 a__2))) 0) (= (+ a__1 (* a__22 a__2) (* (- 0 1) a__6) (* (- 0 1) (* a__22 a__7)) (* (- 0 1) (* a__8 a__23 a__7))) 0) (= (+ a__6 (* a__16 a__7) (* a__3 a__17 a__7) (* (- 0 1) a__1) (* (- 0 1) (* a__10 a__2)) (* (- 0 1) (* a__38 a__11 a__2))) 0) (= (* a__22 a__2) 0) (= (+ a__1 (* a__25 a__2) (* (- 0 1) a__6) (* (- 0 1) (* a__25 a__7)) (* (- 0 1) (* a__8 a__26 a__7))) 0) (= (+ a__6 (* a__27 a__7) (* a__3 a__28 a__7) (* (- 0 1) a__1) (* (- 0 1) (* a__22 a__2)) (* (- 0 1) (* a__38 a__23 a__2))) 0) (= (* a__25 a__2) 0) (= (+ a__1 (* a__27 a__2) (* (- 0 1) a__6) (* (- 0 1) (* a__27 a__7))) 0) (= (+ a__6 (* a__44 a__7) (* a__3 a__45 a__7) (* (- 0 1) a__1) (* (- 0 1) (* a__31 a__2)) (* (- 0 1) (* a__27 a__32 a__2))) 0) (= (+ a__1 (* a__31 a__2) (* (- 0 1) a__6) (* (- 0 1) (* a__31 a__7)) (* (- 0 1) (* a__8 a__32 a__7))) 0) (= (* a__31 a__2) 0) (= (+ a__1 (* a__35 a__2) (* (- 0 1) a__6) (* (- 0 1) (* a__35 a__7)) (* (- 0 1) (* a__8 a__36 a__7))) 0) (= (* a__35 a__2) 0) (= (+ a__1 (* a__38 a__2) (* (- 0 1) a__6) (* (- 0 1) (* a__38 a__7))) 0) (= (+ a__1 (* a__42 a__2) (* (- 0 1) a__6) (* (- 0 1) (* a__42 a__7)) (* (- 0 1) (* a__8 a__43 a__7))) 0) (= (* a__42 a__2) 0) (= (+ a__1 (* a__44 a__2) (* (- 0 1) a__6) (* (- 0 1) (* a__44 a__7)) (* (- 0 1) (* a__8 a__45 a__7))) 0) (= (* a__44 a__2) 0))) (>= b__49 0) (>= 1 b__49) (>= a__7 0) (>= a__21 0) (>= a__30 0) (>= a__41 0) (>= a__11 0) (>= a__15 0) (>= a__23 0) (>= a__26 0) (>= a__32 0) (>= a__36 0) (>= a__4 0) (>= a__45 0) (>= a__43 0) (>= b__50 0) (>= 1 b__50) (>= b__51 0) (>= 1 b__51) (>= a__2 0) (>= b__52 0) (>= 1 b__52) (>= b__53 0) (>= 1 b__53) (>= b__54 0) (>= 1 b__54) (>= b__55 0) (>= 1 b__55) (>= a__9 0) (>= a__5 0) (>= a__12 0) (>= a__17 0) (>= a__24 0) (>= a__28 0) (>= a__33 0) (>= a__37 0) (>= a__34 0) (>= a__39 0) (>= a__8 0) (>= a__3 0) (>= a__46 0) (>= a__47 0) (>= a__18 0) (>= a__19 0) (>= a__10 0) (>= a__13 0) (>= a__14 0) (>= a__16 0) (>= a__20 0) (>= a__22 0) (>= a__25 0) (>= a__27 0) (>= a__29 0) (>= a__31 0) (>= a__35 0) (>= a__38 0) (>= a__40 0) (>= a__42 0) (>= a__44 0) (>= a__48 0) (>= a__1 0) (>= a__6 0)))
(check-sat)
;;(get-assignment)
;;(get-model)
(exit)
